NAME: pr439
COMMENT: Local search tour for pr439 (123137.22309713128)
TYPE: TOUR
DIMENSION: 439
TOUR_SECTION: 1 3 2 52 51 50 48 47 49 46 5 4 6 7 8 9 10 11 40 41 43 45 44 42 39 38 12 13 14 15 16 17 33 34 35 36 37 58 57 79 80 81 82 56 55 54 53 189 232 280 286 287 288 289 290 291 292 293 359 357 358 356 355 354 352 353 351 350 349 347 348 346 345 376 377 379 380 390 389 370 360 361 339 338 337 336 335 334 333 300 299 298 297 296 295 294 279 278 277 276 275 274 273 224 223 222 233 234 235 236 237 238 239 240 241 242 243 244 245 246 247 248 249 251 250 210 211 212 213 214 215 216 217 218 219 220 221 193 194 195 196 197 198 199 200 201 176 175 161 160 135 136 137 138 139 140 141 142 152 143 150 151 153 154 155 156 157 158 159 177 178 179 180 181 182 183 192 184 191 190 185 145 113 114 103 115 116 118 119 117 120 121 122 101 94 93 92 102 69 70 71 72 88 89 90 91 104 105 106 107 108 109 144 146 147 148 112 111 110 75 76 77 87 86 78 59 60 61 62 32 31 30 28 26 27 29 63 73 74 64 25 23 24 21 22 65 66 67 68 20 19 18 100 95 96 97 98 99 128 133 132 131 130 129 127 125 123 124 126 134 162 163 164 165 167 166 169 168 170 171 172 173 174 204 202 203 205 206 207 208 209 253 252 255 254 316 315 256 257 258 259 260 261 262 263 264 307 308 309 310 311 312 313 314 317 318 319 320 321 322 323 324 325 326 327 328 329 331 304 305 306 265 266 267 268 269 270 271 272 301 302 303 330 332 367 366 365 364 363 362 369 368 378 385 386 387 388 401 400 402 404 405 417 418 428 429 431 416 415 419 420 421 414 406 407 413 412 423 422 432 433 430 427 424 425 410 411 426 409 408 403 434 438 437 436 435 439 283 284 344 343 342 341 373 371 372 383 382 384 394 395 393 398 397 396 399 392 391 381 375 374 340 285 231 225 188 187 230 281 282 229 228 227 226 186 149 85 84 83 -1
EOF